NAME 
ROWS
 N  OBJ
 L  R0      
 L  R1      
 E  R2      
COLUMNS
    MARKER    'MARKER'                 'INTORG'
    I0(3)     OBJ       -986
    I0(3)     R0        -284
    I0(3)     R1        -825
    I0(3)     R2        190
    I1(3)     OBJ       -265
    I1(3)     R0        -200
    I1(3)     R1        -724
    I1(3)     R2        887
    I2(3)     OBJ       -139
    I2(3)     R0        -108
    I2(3)     R1        -213
    I2(3)     R2        15
    I3(3)     OBJ       -686
    I3(3)     R0        -198
    I3(3)     R1        -869
    I3(3)     R2        686
    I4(3)     OBJ       -19
    I4(3)     R0        -213
    I4(3)     R1        -292
    I4(3)     R2        896
    I5(3)     OBJ       -225
    I5(3)     R0        -187
    I5(3)     R1        -168
    I5(3)     R2        652
    I6(3)     OBJ       -637
    I6(3)     R0        -503
    I6(3)     R1        -405
    I6(3)     R2        201
    I7(3)     OBJ       -174
    I7(3)     R0        -655
    I7(3)     R1        -144
    I7(3)     R2        129
    I8(3)     OBJ       -301
    I8(3)     R0        -967
    I8(3)     R1        -975
    I8(3)     R2        926
    I9(3)     OBJ       -551
    I9(3)     R0        -232
    I9(3)     R1        -951
    I9(3)     R2        889
    I10(3)    OBJ       -36
    I10(3)    R0        -871
    I10(3)    R1        -802
    I10(3)    R2        662
    I11(3)    OBJ       -680
    I11(3)    R0        -953
    I11(3)    R1        -258
    I11(3)    R2        751
    I12(3)    OBJ       -44
    I12(3)    R0        -497
    I12(3)    R1        -151
    I12(3)    R2        613
    I13(3)    OBJ       -568
    I13(3)    R0        -9
    I13(3)    R1        -909
    I13(3)    R2        874
    I14(3)    OBJ       -956
    I14(3)    R0        -638
    I14(3)    R1        -456
    I14(3)    R2        619
    I15(3)    OBJ       -537
    I15(3)    R0        -515
    I15(3)    R1        -363
    I15(3)    R2        905
    I16(3)    OBJ       -852
    I16(3)    R0        -234
    I16(3)    R1        -96
    I16(3)    R2        41
    I17(3)    OBJ       -808
    I17(3)    R0        -275
    I17(3)    R1        -959
    I17(3)    R2        24
    I18(3)    OBJ       -547
    I18(3)    R0        -689
    I18(3)    R1        -17
    I18(3)    R2        48
    I19(3)    OBJ       -659
    I19(3)    R0        -534
    I19(3)    R1        -63
    I19(3)    R2        16
    I20(1)    R2        1
    MARKER    'MARKER'                 'INTEND'
RHS
    RHS1      R0        -4844
    RHS1      R1        -6189
    RHS1      R2        5012
BOUNDS
 UP BND1      I0(3)     1
 UP BND1      I1(3)     1
 UP BND1      I2(3)     1
 UP BND1      I3(3)     1
 UP BND1      I4(3)     1
 UP BND1      I5(3)     1
 UP BND1      I6(3)     1
 UP BND1      I7(3)     1
 UP BND1      I8(3)     1
 UP BND1      I9(3)     1
 UP BND1      I10(3)    1
 UP BND1      I11(3)    1
 UP BND1      I12(3)    1
 UP BND1      I13(3)    1
 UP BND1      I14(3)    1
 UP BND1      I15(3)    1
 UP BND1      I16(3)    1
 UP BND1      I17(3)    1
 UP BND1      I18(3)    1
 UP BND1      I19(3)    1
 LI BND1      I20(1)    0
ENDATA
